
  22   10
  10   10   10   10   10   10   10   10   10   10

   0   0   0   0   0   0   0   0   0   0   0   2 2 3 
   3  10  10  10  10  10  10  10  10  10  10   2 6 5 
   8  10  10  10  10  10  10  10  10  10  10   2 8 4 
  10  10  10  10  10  10  10  10  10  10  10   1 6 
   8  10  10  10  10  10  10  10  10  10  10   2 9 8 
   7  10  10  10  10  10  10  10  10  10  10   1 7 
  10  10  10  10  10  10  10  10  10  10  10   2 12 9 
   1  10  10  10  10  10  10  10  10  10  10   3 12 11 10 
   5  10  10  10  10  10  10  10  10  10  10   2 11 10 
   6  10  10  10  10  10  10  10  10  10  10   4 18 17 15 14 
   7  10  10  10  10  10  10  10  10  10  10   2 14 13 
   3  10  10  10  10  10  10  10  10  10  10   2 14 13 
   4  10  10  10  10  10  10  10  10  10  10   4 21 18 17 16 
   1  10  10  10  10  10  10  10  10  10  10   2 21 16 
   8  10  10  10  10  10  10  10  10  10  10   1 16 
   3  10  10  10  10  10  10  10  10  10  10   1 19 
   6  10  10  10  10  10  10  10  10  10  10   1 19 
   2  10  10  10  10  10  10  10  10  10  10   1 19 
   3  10  10  10  10  10  10  10  10  10  10   1 20 
   2  10  10  10  10  10  10  10  10  10  10   1 22
  10  10  10  10  10  10  10  10  10  10  10   1 22
   0   0   0   0   0   0   0   0   0   0   0   0 
